321 5
10 10 10 10 10 

0 0 0 0 0 0 3 2 14 46 
0 0 0 0 0 0 4 3 5 8 12 
7 0 0 0 0 1 2 11 4 
7 0 0 0 0 5 2 10 6 
5 0 0 0 0 5 3 11 10 9 
9 0 0 0 0 4 1 7 
10 0 0 0 0 8 1 9 
3 0 0 0 0 4 1 10 
4 0 0 0 0 6 1 13 
9 0 0 0 0 5 1 13 
9 0 0 0 0 6 1 13 
7 0 0 0 0 6 1 13 
0 0 0 0 0 0 2 78 100 
0 0 0 0 0 0 3 15 16 22 
6 1 0 0 1 1 2 26 17 
6 7 0 0 4 7 2 26 17 
9 6 0 0 7 5 2 21 18 
7 4 0 0 5 3 2 24 19 
9 4 0 0 6 2 1 20 
3 6 0 0 5 2 3 30 29 23 
5 6 0 0 6 6 2 30 24 
8 6 0 0 5 2 2 26 25 
10 5 0 0 3 4 1 25 
3 9 0 0 4 6 1 25 
7 1 0 0 3 2 3 35 33 27 
5 4 0 0 9 2 3 35 30 27 
1 4 0 0 5 4 1 28 
3 7 0 0 7 6 2 37 31 
2 8 0 0 4 5 2 37 31 
10 6 0 0 6 8 1 31 
6 7 0 0 5 7 1 32 
9 6 0 0 5 5 1 34 
3 5 0 0 3 7 1 34 
6 5 0 0 5 10 3 44 39 36 
2 6 0 0 5 3 2 44 36 
6 6 0 0 3 10 4 43 42 40 38 
7 5 0 0 3 6 2 40 38 
1 2 0 0 6 7 1 41 
6 2 0 0 7 4 1 40 
4 4 0 0 5 3 1 45 
4 4 0 0 8 4 1 45 
6 4 0 0 4 5 1 45 
3 6 0 0 5 7 1 45 
10 4 0 0 6 7 1 45 
0 0 0 0 0 0 1 160 
0 0 0 0 0 0 3 47 48 50 
7 0 3 1 1 0 2 55 49 
8 0 1 7 5 0 2 55 49 
6 0 5 7 7 0 2 53 51 
9 0 3 3 4 0 3 55 54 53 
8 0 4 6 4 0 1 52 
2 0 6 6 7 0 2 56 54 
4 0 5 4 6 0 2 58 56 
7 0 8 5 5 0 3 63 58 57 
6 0 5 5 2 0 1 56 
3 0 5 2 6 0 2 63 57 
3 0 5 4 5 0 1 59 
10 0 5 6 5 0 1 59 
3 0 5 5 1 0 2 64 60 
7 0 4 6 3 0 2 62 61 
2 0 5 7 6 0 2 68 65 
5 0 8 6 4 0 2 68 65 
5 0 8 5 5 0 1 64 
8 0 6 7 5 0 1 65 
6 0 4 5 5 0 1 66 
3 0 3 4 4 0 1 67 
3 0 10 5 4 0 2 71 69 
10 0 3 4 4 0 1 69 
4 0 5 4 7 0 5 76 75 74 72 70 
3 0 8 3 10 0 1 73 
3 0 8 7 7 0 1 72 
8 0 3 5 4 0 1 77 
10 0 7 3 7 0 1 77 
6 0 4 5 5 0 1 77 
7 0 1 9 4 0 1 77 
1 0 3 4 8 0 1 77 
0 0 0 0 0 0 1 160 
0 0 0 0 0 0 2 79 98 
1 0 1 0 1 0 2 97 80 
8 0 5 0 8 0 3 96 95 81 
3 0 5 0 4 0 2 94 82 
8 0 4 0 7 0 3 93 92 83 
1 0 9 0 3 0 1 84 
2 0 4 0 2 0 2 91 85 
5 0 6 0 4 0 3 90 89 86 
10 0 3 0 6 0 1 87 
4 0 7 0 4 0 1 88 
10 0 3 0 3 0 1 99 
3 0 6 0 8 0 1 99 
9 0 7 0 5 0 1 99 
6 0 2 0 7 0 1 99 
6 0 5 0 6 0 1 99 
2 0 3 0 6 0 1 99 
7 0 4 0 4 0 1 99 
8 0 8 0 10 0 1 99 
6 0 3 0 2 0 1 99 
9 0 5 0 7 0 1 99 
8 0 10 0 3 0 1 99 
0 0 0 0 0 0 1 160 
0 0 0 0 0 0 5 101 104 106 109 110 
4 0 0 0 1 0 1 102 
2 0 0 0 5 0 2 108 103 
8 0 0 0 4 0 1 105 
9 0 0 0 4 0 1 105 
7 0 0 0 4 0 1 107 
1 0 0 0 7 0 1 108 
2 0 0 0 5 0 1 111 
7 0 0 0 8 0 1 111 
10 0 0 0 8 0 1 111 
6 0 0 0 4 0 1 111 
0 0 0 0 0 0 4 112 124 136 148 
0 0 0 0 0 0 3 113 121 122 
5 0 1 0 0 0 2 117 114 
7 0 5 0 0 0 1 115 
6 0 6 0 0 0 2 119 116 
1 0 6 0 0 0 1 118 
2 0 7 0 0 0 1 120 
2 0 6 0 0 0 1 123 
6 0 5 0 0 0 1 123 
2 0 6 0 0 0 1 123 
10 0 3 0 0 0 1 123 
6 0 5 0 0 0 1 123 
0 0 0 0 0 0 1 160 
0 0 0 0 0 0 2 125 126 
1 0 0 1 0 0 1 127 
5 0 0 4 0 0 1 127 
9 0 0 4 0 0 1 128 
3 0 0 6 0 0 3 134 130 129 
3 0 0 5 0 0 3 133 132 131 
8 0 0 8 0 0 3 133 132 131 
4 0 0 6 0 0 1 135 
6 0 0 6 0 0 1 135 
6 0 0 6 0 0 1 135 
6 0 0 4 0 0 1 135 
0 0 0 0 0 0 1 160 
0 0 0 0 0 0 3 137 142 143 
3 0 0 1 0 0 3 146 140 138 
1 0 0 4 0 0 1 139 
3 0 0 5 0 0 2 144 141 
5 0 0 6 0 0 2 145 144 
10 0 0 6 0 0 1 145 
6 0 0 3 0 0 1 146 
4 0 0 6 0 0 1 144 
9 0 0 5 0 0 1 147 
2 0 0 10 0 0 1 147 
3 0 0 4 0 0 1 147 
0 0 0 0 0 0 1 160 
0 0 0 0 0 0 2 149 151 
7 0 0 0 0 1 2 152 150 
7 0 0 0 0 7 3 158 154 153 
4 0 0 0 0 5 2 158 152 
9 0 0 0 0 5 2 157 155 
7 0 0 0 0 5 2 157 155 
1 0 0 0 0 5 2 157 156 
7 0 0 0 0 7 1 156 
8 0 0 0 0 6 1 159 
3 0 0 0 0 5 1 159 
2 0 0 0 0 4 1 159 
0 0 0 0 0 0 1 160 
0 0 0 0 0 0 5 161 183 205 217 239 
0 0 0 0 0 0 1 162 
7 0 0 0 3 1 1 163 
6 0 0 0 4 4 2 165 164 
10 0 0 0 4 6 2 168 166 
7 0 0 0 4 4 1 166 
1 0 0 0 3 5 2 169 167 
6 0 0 0 4 9 3 172 171 170 
5 0 0 0 5 5 2 170 169 
10 0 0 0 9 4 3 175 174 173 
2 0 0 0 1 6 2 174 173 
5 0 0 0 6 4 2 175 174 
10 0 0 0 6 4 1 173 
4 0 0 0 10 4 2 178 176 
1 0 0 0 5 4 2 178 176 
5 0 0 0 3 8 3 181 180 178 
6 0 0 0 4 4 2 181 177 
5 0 0 0 7 5 2 180 179 
6 0 0 0 7 7 1 179 
8 0 0 0 2 4 1 182 
2 0 0 0 8 7 1 182 
10 0 0 0 5 5 1 182 
0 0 0 0 0 0 1 321 
0 0 0 0 0 0 10 184 191 196 197 198 199 200 201 202 203 
4 0 0 3 1 0 1 185 
10 0 0 8 5 0 2 195 186 
8 0 0 6 1 0 1 187 
3 0 0 4 6 0 1 188 
5 0 0 5 6 0 1 189 
4 0 0 5 4 0 1 190 
7 0 0 5 6 0 1 192 
3 0 0 5 8 0 1 192 
1 0 0 5 5 0 1 193 
2 0 0 3 9 0 1 194 
7 0 0 4 6 0 1 204 
1 0 0 4 5 0 1 204 
9 0 0 4 4 0 1 204 
6 0 0 10 2 0 1 204 
9 0 0 6 2 0 1 204 
10 0 0 4 9 0 1 204 
2 0 0 5 4 0 1 204 
7 0 0 6 4 0 1 204 
6 0 0 4 6 0 1 204 
2 0 0 4 7 0 1 204 
0 0 0 0 0 0 1 321 
0 0 0 0 0 0 3 206 207 208 
10 0 0 0 0 1 3 215 210 209 
6 0 0 0 0 8 3 215 211 210 
9 0 0 0 0 4 3 215 214 211 
5 0 0 0 0 7 1 211 
2 0 0 0 0 8 2 214 213 
4 0 0 0 0 4 1 212 
8 0 0 0 0 2 1 213 
2 0 0 0 0 4 1 216 
3 0 0 0 0 6 1 216 
2 0 0 0 0 6 1 216 
0 0 0 0 0 0 5 261 273 285 297 309 
0 0 0 0 0 0 2 218 237 
1 1 0 0 0 1 1 219 
8 5 0 0 0 6 2 229 220 
3 4 0 0 0 5 1 221 
4 3 0 0 0 7 2 228 222 
10 5 0 0 0 4 4 236 234 225 223 
9 7 0 0 0 8 1 224 
7 7 0 0 0 7 2 233 226 
3 3 0 0 0 5 2 233 226 
2 5 0 0 0 4 3 232 231 227 
6 6 0 0 0 5 1 230 
1 2 0 0 0 6 1 235 
3 7 0 0 0 6 1 234 
1 6 0 0 0 4 1 238 
10 7 0 0 0 4 1 238 
3 9 0 0 0 5 1 238 
1 4 0 0 0 5 1 238 
3 4 0 0 0 4 1 238 
3 7 0 0 0 4 1 238 
4 3 0 0 0 5 1 238 
3 5 0 0 0 5 1 238 
0 0 0 0 0 0 1 321 
0 0 0 0 0 0 2 240 259 
7 0 0 0 1 1 1 241 
4 0 0 0 2 2 2 246 242 
8 0 0 0 6 8 1 243 
2 0 0 0 6 7 2 251 244 
4 0 0 0 5 3 4 257 256 248 245 
1 0 0 0 8 3 1 247 
6 0 0 0 4 3 5 257 256 254 253 250 
2 0 0 0 2 7 2 255 249 
7 0 0 0 6 4 2 255 249 
10 0 0 0 4 6 3 254 253 250 
5 0 0 0 5 7 1 252 
10 0 0 0 8 3 1 258 
8 0 0 0 8 7 1 260 
1 0 0 0 7 4 1 260 
9 0 0 0 2 8 1 260 
8 0 0 0 6 5 1 260 
2 0 0 0 6 4 1 260 
1 0 0 0 4 6 1 260 
9 0 0 0 3 5 1 260 
10 0 0 0 7 7 1 260 
0 0 0 0 0 0 1 321 
0 0 0 0 0 0 4 262 266 267 271 
8 1 0 0 0 0 1 263 
2 5 0 0 0 0 3 270 269 264 
4 6 0 0 0 0 1 265 
4 4 0 0 0 0 1 268 
5 8 0 0 0 0 1 269 
2 6 0 0 0 0 1 268 
3 4 0 0 0 0 1 272 
5 5 0 0 0 0 1 272 
7 3 0 0 0 0 1 272 
9 8 0 0 0 0 1 272 
0 0 0 0 0 0 1 321 
0 0 0 0 0 0 2 274 275 
1 3 0 0 0 0 4 280 279 278 277 
5 4 0 0 0 0 1 276 
2 5 0 0 0 0 1 277 
1 5 0 0 0 0 2 283 281 
3 7 0 0 0 0 2 283 281 
3 2 0 0 0 0 2 283 281 
3 1 0 0 0 0 1 281 
2 7 0 0 0 0 1 282 
6 6 0 0 0 0 1 284 
1 10 0 0 0 0 1 284 
0 0 0 0 0 0 1 321 
0 0 0 0 0 0 3 286 289 290 
1 0 0 0 1 0 3 292 288 287 
1 0 0 0 5 0 1 291 
8 0 0 0 10 0 1 291 
9 0 0 0 3 0 1 291 
7 0 0 0 3 0 1 291 
3 0 0 0 3 0 2 295 293 
5 0 0 0 10 0 2 295 293 
4 0 0 0 5 0 1 294 
4 0 0 0 6 0 1 296 
2 0 0 0 4 0 1 296 
0 0 0 0 0 0 1 321 
0 0 0 0 0 0 3 298 300 301 
1 0 1 0 0 0 3 307 302 299 
1 0 6 0 0 0 2 306 303 
1 0 4 0 0 0 2 307 302 
5 0 10 0 0 0 2 306 304 
7 0 9 0 0 0 2 306 305 
1 0 3 0 0 0 1 304 
9 0 4 0 0 0 1 305 
5 0 5 0 0 0 1 308 
10 0 5 0 0 0 1 308 
3 0 3 0 0 0 1 308 
0 0 0 0 0 0 1 321 
0 0 0 0 0 0 1 310 
2 0 0 0 1 0 2 313 311 
6 0 0 0 5 0 2 317 312 
3 0 0 0 7 0 2 316 315 
7 0 0 0 5 0 2 318 314 
5 0 0 0 6 0 1 315 
4 0 0 0 4 0 1 319 
6 0 0 0 7 0 1 318 
1 0 0 0 2 0 1 318 
7 0 0 0 5 0 1 320 
8 0 0 0 8 0 1 320 
0 0 0 0 0 0 1 321 
0 0 0 0 0 0 0 
